(set-info :smt-lib-version 2.6)
(set-logic QF_NIA)
(set-info :source |
Generated by: Cristina Borralleras, Daniel Larraz, Albert Oliveras, Enric Rodriguez-Carbonell, Albert Rubio
Generated on: 2017-04-27
Generator: VeryMax
Application: Termination proving
Target solver: barcelogic
|)
(set-info :license "https://creativecommons.org/licenses/by/4.0/")
(set-info :category "industrial")
(set-info :status sat)
(declare-fun Nl2main_i1 () Int)
(declare-fun Nl2main_up1 () Int)
(declare-fun lam0n0 () Int)
(declare-fun lam0n1 () Int)
(declare-fun lam0n3 () Int)
(declare-fun lam0n2 () Int)
(declare-fun Nl2CT1 () Int)
(declare-fun lam1n0 () Int)
(declare-fun lam1n1 () Int)
(declare-fun lam1n3 () Int)
(declare-fun lam1n2 () Int)
(declare-fun lam2n0 () Int)
(declare-fun lam2n1 () Int)
(declare-fun lam2n3 () Int)
(declare-fun lam2n2 () Int)
(declare-fun lam3n0 () Int)
(declare-fun lam3n1 () Int)
(declare-fun lam3n3 () Int)
(declare-fun lam3n2 () Int)
(declare-fun lam4n0 () Int)
(declare-fun lam4n1 () Int)
(declare-fun lam4n2 () Int)
(declare-fun lam4n4 () Int)
(declare-fun lam4n3 () Int)
(declare-fun lam5n0 () Int)
(declare-fun lam5n1 () Int)
(declare-fun lam5n2 () Int)
(declare-fun lam5n4 () Int)
(declare-fun lam5n3 () Int)
(declare-fun lam6n0 () Int)
(declare-fun lam6n1 () Int)
(declare-fun lam6n2 () Int)
(declare-fun lam6n3 () Int)
(declare-fun lam6n4 () Int)
(declare-fun lam7n0 () Int)
(declare-fun lam7n1 () Int)
(declare-fun lam7n2 () Int)
(declare-fun lam7n3 () Int)
(declare-fun lam7n4 () Int)
(declare-fun lam8n0 () Int)
(declare-fun lam8n1 () Int)
(declare-fun lam8n3 () Int)
(declare-fun lam8n2 () Int)
(declare-fun lam9n0 () Int)
(declare-fun lam9n1 () Int)
(declare-fun lam9n3 () Int)
(declare-fun lam9n2 () Int)
(declare-fun lam10n0 () Int)
(declare-fun lam10n1 () Int)
(declare-fun lam10n2 () Int)
(declare-fun lam10n3 () Int)
(declare-fun lam11n0 () Int)
(declare-fun lam11n1 () Int)
(declare-fun lam11n2 () Int)
(declare-fun lam11n3 () Int)
(declare-fun lam12n0 () Int)
(declare-fun lam12n1 () Int)
(declare-fun lam12n2 () Int)
(declare-fun lam12n3 () Int)
(declare-fun main_i () Int)
(declare-fun main_up () Int)
(declare-fun undef2 () Int)
(declare-fun lam16n0 () Int)
(declare-fun lam16n1 () Int)
(declare-fun lam16n3 () Int)
(declare-fun lam16n2 () Int)
(declare-fun RFN1_CT () Int)
(declare-fun RFN1_main_i () Int)
(declare-fun RFN1_main_up () Int)
(declare-fun lam20n0 () Int)
(declare-fun lam20n1 () Int)
(declare-fun lam20n3 () Int)
(declare-fun lam20n2 () Int)
(declare-fun lam24n0 () Int)
(declare-fun lam24n1 () Int)
(declare-fun lam24n2 () Int)
(declare-fun lam24n4 () Int)
(declare-fun lam24n3 () Int)
(declare-fun lam28n0 () Int)
(declare-fun lam28n1 () Int)
(declare-fun lam28n2 () Int)
(declare-fun lam28n3 () Int)
(declare-fun lam28n4 () Int)
(declare-fun lam32n0 () Int)
(declare-fun lam32n1 () Int)
(declare-fun lam32n3 () Int)
(declare-fun lam32n2 () Int)
(declare-fun lam36n0 () Int)
(declare-fun lam36n1 () Int)
(declare-fun lam36n2 () Int)
(declare-fun lam36n3 () Int)
(declare-fun lam14n0 () Int)
(declare-fun lam14n1 () Int)
(declare-fun lam14n3 () Int)
(declare-fun lam14n2 () Int)
(declare-fun lam15n0 () Int)
(declare-fun lam15n1 () Int)
(declare-fun lam15n3 () Int)
(declare-fun lam15n2 () Int)
(declare-fun lam18n0 () Int)
(declare-fun lam18n1 () Int)
(declare-fun lam18n3 () Int)
(declare-fun lam18n2 () Int)
(declare-fun lam19n0 () Int)
(declare-fun lam19n1 () Int)
(declare-fun lam19n3 () Int)
(declare-fun lam19n2 () Int)
(declare-fun lam22n0 () Int)
(declare-fun lam22n1 () Int)
(declare-fun lam22n2 () Int)
(declare-fun lam22n4 () Int)
(declare-fun lam22n3 () Int)
(declare-fun lam23n0 () Int)
(declare-fun lam23n1 () Int)
(declare-fun lam23n2 () Int)
(declare-fun lam23n4 () Int)
(declare-fun lam23n3 () Int)
(declare-fun lam26n0 () Int)
(declare-fun lam26n1 () Int)
(declare-fun lam26n2 () Int)
(declare-fun lam26n3 () Int)
(declare-fun lam26n4 () Int)
(declare-fun lam27n0 () Int)
(declare-fun lam27n1 () Int)
(declare-fun lam27n2 () Int)
(declare-fun lam27n3 () Int)
(declare-fun lam27n4 () Int)
(declare-fun lam30n0 () Int)
(declare-fun lam30n1 () Int)
(declare-fun lam30n3 () Int)
(declare-fun lam30n2 () Int)
(declare-fun lam31n0 () Int)
(declare-fun lam31n1 () Int)
(declare-fun lam31n3 () Int)
(declare-fun lam31n2 () Int)
(declare-fun lam34n0 () Int)
(declare-fun lam34n1 () Int)
(declare-fun lam34n2 () Int)
(declare-fun lam34n3 () Int)
(declare-fun lam35n0 () Int)
(declare-fun lam35n1 () Int)
(declare-fun lam35n2 () Int)
(declare-fun lam35n3 () Int)
(declare-fun lam13n0 () Int)
(declare-fun lam13n1 () Int)
(declare-fun lam13n3 () Int)
(declare-fun lam13n2 () Int)
(declare-fun lam17n0 () Int)
(declare-fun lam17n1 () Int)
(declare-fun lam17n3 () Int)
(declare-fun lam17n2 () Int)
(declare-fun lam21n0 () Int)
(declare-fun lam21n1 () Int)
(declare-fun lam21n2 () Int)
(declare-fun lam21n4 () Int)
(declare-fun lam21n3 () Int)
(declare-fun lam25n0 () Int)
(declare-fun lam25n1 () Int)
(declare-fun lam25n2 () Int)
(declare-fun lam25n3 () Int)
(declare-fun lam25n4 () Int)
(declare-fun lam29n0 () Int)
(declare-fun lam29n1 () Int)
(declare-fun lam29n3 () Int)
(declare-fun lam29n2 () Int)
(declare-fun lam33n0 () Int)
(declare-fun lam33n1 () Int)
(declare-fun lam33n2 () Int)
(declare-fun lam33n3 () Int)
(assert ( and ( <= ( - 1 ) Nl2main_i1 ) ( <= Nl2main_i1 1 ) ( <= ( - 1 ) Nl2main_up1 ) ( <= Nl2main_up1 1 ) ))
(assert ( or ( and ( >= lam0n0 0 ) ( >= lam0n1 0 ) ( >= lam0n3 0 ) ( > ( + ( * ( - 1 ) lam0n1 ) ( * ( - 1 ) lam0n2 ) ( * Nl2CT1 lam0n3 ) ( - 1 ) ) 0 ) ( = ( + ( * ( - 1 ) lam0n0 ) ( * 1 lam0n2 ) ( * Nl2main_i1 lam0n3 ) ) 0 ) ( = ( + ( * 1 lam0n0 ) ( * 1 lam0n1 ) ( * Nl2main_up1 lam0n3 ) ) 0 ) ) ( and ( >= lam1n0 0 ) ( >= lam1n1 0 ) ( >= lam1n3 0 ) ( > ( + ( * ( - 1 ) lam1n1 ) ( * ( - 1 ) lam1n2 ) ( * Nl2CT1 lam1n3 ) ( - 1 ( + ( + Nl2CT1 ( * Nl2main_i1 1 ) ) ( * Nl2main_up1 1 ) ) ) ) 0 ) ( = ( + ( * ( - 1 ) lam1n0 ) ( * 1 lam1n2 ) ( * Nl2main_i1 lam1n3 ) ( - ( + 0 ( * Nl2main_i1 1 ) ) ) ) 0 ) ( = ( + ( * 1 lam1n0 ) ( * 1 lam1n1 ) ( * Nl2main_up1 lam1n3 ) ) 0 ) ) ))
(assert ( or ( and ( >= lam2n0 0 ) ( >= lam2n1 0 ) ( >= lam2n3 0 ) ( > ( + ( * ( - 1 ) lam2n1 ) ( * ( - 10 ) lam2n2 ) ( * Nl2CT1 lam2n3 ) ( - 1 ) ) 0 ) ( = ( + ( * ( - 1 ) lam2n0 ) ( * 1 lam2n2 ) ( * Nl2main_i1 lam2n3 ) ) 0 ) ( = ( + ( * 1 lam2n0 ) ( * 1 lam2n1 ) ( * Nl2main_up1 lam2n3 ) ) 0 ) ) ( and ( >= lam3n0 0 ) ( >= lam3n1 0 ) ( >= lam3n3 0 ) ( > ( + ( * ( - 1 ) lam3n1 ) ( * ( - 10 ) lam3n2 ) ( * Nl2CT1 lam3n3 ) ( - 1 ( + ( + Nl2CT1 ( * Nl2main_i1 ( - 1 ) ) ) ( * Nl2main_up1 0 ) ) ) ) 0 ) ( = ( + ( * ( - 1 ) lam3n0 ) ( * 1 lam3n2 ) ( * Nl2main_i1 lam3n3 ) ( - ( + 0 ( * Nl2main_i1 1 ) ) ) ) 0 ) ( = ( + ( * 1 lam3n0 ) ( * 1 lam3n1 ) ( * Nl2main_up1 lam3n3 ) ) 0 ) ) ))
(assert ( or ( and ( >= lam4n0 0 ) ( >= lam4n1 0 ) ( >= lam4n2 0 ) ( >= lam4n4 0 ) ( > ( + ( * ( - 9 ) lam4n1 ) ( * 2 lam4n2 ) ( * ( - 1 ) lam4n3 ) ( * Nl2CT1 lam4n4 ) ( - 1 ) ) 0 ) ( = ( + ( * ( - 1 ) lam4n0 ) ( * 1 lam4n1 ) ( * ( - 1 ) lam4n2 ) ( * Nl2main_i1 lam4n4 ) ) 0 ) ( = ( + ( * 1 lam4n0 ) ( * 1 lam4n3 ) ( * Nl2main_up1 lam4n4 ) ) 0 ) ) ( and ( >= lam5n0 0 ) ( >= lam5n1 0 ) ( >= lam5n2 0 ) ( >= lam5n4 0 ) ( > ( + ( * ( - 9 ) lam5n1 ) ( * 2 lam5n2 ) ( * ( - 1 ) lam5n3 ) ( * Nl2CT1 lam5n4 ) ( - 1 ( + Nl2CT1 ( * Nl2main_i1 1 ) ) ) ) 0 ) ( = ( + ( * ( - 1 ) lam5n0 ) ( * 1 lam5n1 ) ( * ( - 1 ) lam5n2 ) ( * Nl2main_i1 lam5n4 ) ( - ( + 0 ( * Nl2main_i1 1 ) ) ) ) 0 ) ( = ( + ( * 1 lam5n0 ) ( * 1 lam5n3 ) ( * Nl2main_up1 lam5n4 ) ( - ( + 0 Nl2main_up1 ) ) ) 0 ) ) ))
(assert ( or ( and ( >= lam6n0 0 ) ( >= lam6n1 0 ) ( >= lam6n2 0 ) ( >= lam6n3 0 ) ( >= lam6n4 0 ) ( > ( + ( * ( - 9 ) lam6n2 ) ( * 2 lam6n3 ) ( * Nl2CT1 lam6n4 ) ( - 1 ) ) 0 ) ( = ( + ( * ( - 1 ) lam6n0 ) ( * 1 lam6n2 ) ( * ( - 1 ) lam6n3 ) ( * Nl2main_i1 lam6n4 ) ) 0 ) ( = ( + ( * 1 lam6n0 ) ( * 1 lam6n1 ) ( * Nl2main_up1 lam6n4 ) ) 0 ) ) ( and ( >= lam7n0 0 ) ( >= lam7n1 0 ) ( >= lam7n2 0 ) ( >= lam7n3 0 ) ( >= lam7n4 0 ) ( > ( + ( * ( - 9 ) lam7n2 ) ( * 2 lam7n3 ) ( * Nl2CT1 lam7n4 ) ( - 1 ( + Nl2CT1 ( * Nl2main_i1 ( - 1 ) ) ) ) ) 0 ) ( = ( + ( * ( - 1 ) lam7n0 ) ( * 1 lam7n2 ) ( * ( - 1 ) lam7n3 ) ( * Nl2main_i1 lam7n4 ) ( - ( + 0 ( * Nl2main_i1 1 ) ) ) ) 0 ) ( = ( + ( * 1 lam7n0 ) ( * 1 lam7n1 ) ( * Nl2main_up1 lam7n4 ) ( - ( + 0 Nl2main_up1 ) ) ) 0 ) ) ))
(assert ( or ( and ( >= lam8n0 0 ) ( >= lam8n1 0 ) ( >= lam8n3 0 ) ( > ( + ( * 11 lam8n1 ) ( * ( - 1 ) lam8n2 ) ( * Nl2CT1 lam8n3 ) ( - 1 ) ) 0 ) ( = ( + ( * ( - 1 ) lam8n0 ) ( * ( - 1 ) lam8n1 ) ( * Nl2main_i1 lam8n3 ) ) 0 ) ( = ( + ( * 1 lam8n0 ) ( * 1 lam8n2 ) ( * Nl2main_up1 lam8n3 ) ) 0 ) ) ( and ( >= lam9n0 0 ) ( >= lam9n1 0 ) ( >= lam9n3 0 ) ( > ( + ( * 11 lam9n1 ) ( * ( - 1 ) lam9n2 ) ( * Nl2CT1 lam9n3 ) ( - 1 ( + Nl2CT1 ( * Nl2main_i1 1 ) ) ) ) 0 ) ( = ( + ( * ( - 1 ) lam9n0 ) ( * ( - 1 ) lam9n1 ) ( * Nl2main_i1 lam9n3 ) ( - ( + 0 ( * Nl2main_i1 1 ) ) ) ) 0 ) ( = ( + ( * 1 lam9n0 ) ( * 1 lam9n2 ) ( * Nl2main_up1 lam9n3 ) ( - ( + 0 Nl2main_up1 ) ) ) 0 ) ) ))
(assert ( or ( and ( >= lam10n0 0 ) ( >= lam10n1 0 ) ( >= lam10n2 0 ) ( >= lam10n3 0 ) ( > ( + ( * 11 lam10n2 ) ( * Nl2CT1 lam10n3 ) ( - 1 ) ) 0 ) ( = ( + ( * ( - 1 ) lam10n0 ) ( * ( - 1 ) lam10n2 ) ( * Nl2main_i1 lam10n3 ) ) 0 ) ( = ( + ( * 1 lam10n0 ) ( * 1 lam10n1 ) ( * Nl2main_up1 lam10n3 ) ) 0 ) ) ( and ( >= lam11n0 0 ) ( >= lam11n1 0 ) ( >= lam11n2 0 ) ( >= lam11n3 0 ) ( > ( + ( * 11 lam11n2 ) ( * Nl2CT1 lam11n3 ) ( - 1 ( + Nl2CT1 ( * Nl2main_i1 ( - 1 ) ) ) ) ) 0 ) ( = ( + ( * ( - 1 ) lam11n0 ) ( * ( - 1 ) lam11n2 ) ( * Nl2main_i1 lam11n3 ) ( - ( + 0 ( * Nl2main_i1 1 ) ) ) ) 0 ) ( = ( + ( * 1 lam11n0 ) ( * 1 lam11n1 ) ( * Nl2main_up1 lam11n3 ) ( - ( + 0 Nl2main_up1 ) ) ) 0 ) ) ))
(assert ( and ( not ( <= ( + 1 main_i ( * ( - 1 ) main_up ) ) 0 ) ) ( not ( <= main_i 0 ) ) ( = ( + main_i ( * ( - 1 ) undef2 ) ) 0 ) ( = main_up 0 ) ( <= ( + Nl2CT1 ( * ( + 0 Nl2main_i1 ) main_i ) ( * ( + 0 Nl2main_up1 ) main_up ) ) 0 ) ))
(assert ( or ( and ( and ( and ( >= lam16n0 0 ) ( >= lam16n1 0 ) ( >= lam16n3 0 ) ( > ( + ( * ( - 1 ) lam16n1 ) ( * ( - 1 ) lam16n2 ) ( * Nl2CT1 lam16n3 ) ( - 1 ( - ( + ( + RFN1_CT ( * RFN1_main_i 1 ) ) ( * RFN1_main_up 1 ) ) RFN1_CT ) ) ) 0 ) ( = ( + ( * ( - 1 ) lam16n0 ) ( * 1 lam16n2 ) ( * Nl2main_i1 lam16n3 ) ( - ( - ( + 0 ( * RFN1_main_i 1 ) ) RFN1_main_i ) ) ) 0 ) ( = ( + ( * 1 lam16n0 ) ( * 1 lam16n1 ) ( * Nl2main_up1 lam16n3 ) ( - ( - RFN1_main_up ) ) ) 0 ) ) ( and ( >= lam20n0 0 ) ( >= lam20n1 0 ) ( >= lam20n3 0 ) ( > ( + ( * ( - 1 ) lam20n1 ) ( * ( - 10 ) lam20n2 ) ( * Nl2CT1 lam20n3 ) ( - 1 ( - ( + ( + RFN1_CT ( * RFN1_main_i ( - 1 ) ) ) ( * RFN1_main_up 0 ) ) RFN1_CT ) ) ) 0 ) ( = ( + ( * ( - 1 ) lam20n0 ) ( * 1 lam20n2 ) ( * Nl2main_i1 lam20n3 ) ( - ( - ( + 0 ( * RFN1_main_i 1 ) ) RFN1_main_i ) ) ) 0 ) ( = ( + ( * 1 lam20n0 ) ( * 1 lam20n1 ) ( * Nl2main_up1 lam20n3 ) ( - ( - RFN1_main_up ) ) ) 0 ) ) ( and ( >= lam24n0 0 ) ( >= lam24n1 0 ) ( >= lam24n2 0 ) ( >= lam24n4 0 ) ( > ( + ( * ( - 9 ) lam24n1 ) ( * 2 lam24n2 ) ( * ( - 1 ) lam24n3 ) ( * Nl2CT1 lam24n4 ) ( - 1 ( - ( + RFN1_CT ( * RFN1_main_i 1 ) ) RFN1_CT ) ) ) 0 ) ( = ( + ( * ( - 1 ) lam24n0 ) ( * 1 lam24n1 ) ( * ( - 1 ) lam24n2 ) ( * Nl2main_i1 lam24n4 ) ( - ( - ( + 0 ( * RFN1_main_i 1 ) ) RFN1_main_i ) ) ) 0 ) ( = ( + ( * 1 lam24n0 ) ( * 1 lam24n3 ) ( * Nl2main_up1 lam24n4 ) ( - ( - ( + 0 RFN1_main_up ) RFN1_main_up ) ) ) 0 ) ) ( and ( >= lam28n0 0 ) ( >= lam28n1 0 ) ( >= lam28n2 0 ) ( >= lam28n3 0 ) ( >= lam28n4 0 ) ( > ( + ( * ( - 9 ) lam28n2 ) ( * 2 lam28n3 ) ( * Nl2CT1 lam28n4 ) ( - 1 ( - ( + RFN1_CT ( * RFN1_main_i ( - 1 ) ) ) RFN1_CT ) ) ) 0 ) ( = ( + ( * ( - 1 ) lam28n0 ) ( * 1 lam28n2 ) ( * ( - 1 ) lam28n3 ) ( * Nl2main_i1 lam28n4 ) ( - ( - ( + 0 ( * RFN1_main_i 1 ) ) RFN1_main_i ) ) ) 0 ) ( = ( + ( * 1 lam28n0 ) ( * 1 lam28n1 ) ( * Nl2main_up1 lam28n4 ) ( - ( - ( + 0 RFN1_main_up ) RFN1_main_up ) ) ) 0 ) ) ( and ( >= lam32n0 0 ) ( >= lam32n1 0 ) ( >= lam32n3 0 ) ( > ( + ( * 11 lam32n1 ) ( * ( - 1 ) lam32n2 ) ( * Nl2CT1 lam32n3 ) ( - 1 ( - ( + RFN1_CT ( * RFN1_main_i 1 ) ) RFN1_CT ) ) ) 0 ) ( = ( + ( * ( - 1 ) lam32n0 ) ( * ( - 1 ) lam32n1 ) ( * Nl2main_i1 lam32n3 ) ( - ( - ( + 0 ( * RFN1_main_i 1 ) ) RFN1_main_i ) ) ) 0 ) ( = ( + ( * 1 lam32n0 ) ( * 1 lam32n2 ) ( * Nl2main_up1 lam32n3 ) ( - ( - ( + 0 RFN1_main_up ) RFN1_main_up ) ) ) 0 ) ) ( and ( >= lam36n0 0 ) ( >= lam36n1 0 ) ( >= lam36n2 0 ) ( >= lam36n3 0 ) ( > ( + ( * 11 lam36n2 ) ( * Nl2CT1 lam36n3 ) ( - 1 ( - ( + RFN1_CT ( * RFN1_main_i ( - 1 ) ) ) RFN1_CT ) ) ) 0 ) ( = ( + ( * ( - 1 ) lam36n0 ) ( * ( - 1 ) lam36n2 ) ( * Nl2main_i1 lam36n3 ) ( - ( - ( + 0 ( * RFN1_main_i 1 ) ) RFN1_main_i ) ) ) 0 ) ( = ( + ( * 1 lam36n0 ) ( * 1 lam36n1 ) ( * Nl2main_up1 lam36n3 ) ( - ( - ( + 0 RFN1_main_up ) RFN1_main_up ) ) ) 0 ) ) ) ( or ( and ( and ( >= lam14n0 0 ) ( >= lam14n1 0 ) ( >= lam14n3 0 ) ( > ( + ( * ( - 1 ) lam14n1 ) ( * ( - 1 ) lam14n2 ) ( * Nl2CT1 lam14n3 ) ( - 1 ( - RFN1_CT ) ) ) 0 ) ( = ( + ( * ( - 1 ) lam14n0 ) ( * 1 lam14n2 ) ( * Nl2main_i1 lam14n3 ) ( - ( - RFN1_main_i ) ) ) 0 ) ( = ( + ( * 1 lam14n0 ) ( * 1 lam14n1 ) ( * Nl2main_up1 lam14n3 ) ( - ( - RFN1_main_up ) ) ) 0 ) ) ( and ( >= lam15n0 0 ) ( >= lam15n1 0 ) ( >= lam15n3 0 ) ( > ( + ( * ( - 1 ) lam15n1 ) ( * ( - 1 ) lam15n2 ) ( * Nl2CT1 lam15n3 ) ( - 1 ( + ( - ( + ( + RFN1_CT ( * RFN1_main_i 1 ) ) ( * RFN1_main_up 1 ) ) RFN1_CT ) 1 ) ) ) 0 ) ( = ( + ( * ( - 1 ) lam15n0 ) ( * 1 lam15n2 ) ( * Nl2main_i1 lam15n3 ) ( - ( - ( + 0 ( * RFN1_main_i 1 ) ) RFN1_main_i ) ) ) 0 ) ( = ( + ( * 1 lam15n0 ) ( * 1 lam15n1 ) ( * Nl2main_up1 lam15n3 ) ( - ( - RFN1_main_up ) ) ) 0 ) ) ) ( and ( and ( >= lam18n0 0 ) ( >= lam18n1 0 ) ( >= lam18n3 0 ) ( > ( + ( * ( - 1 ) lam18n1 ) ( * ( - 10 ) lam18n2 ) ( * Nl2CT1 lam18n3 ) ( - 1 ( - RFN1_CT ) ) ) 0 ) ( = ( + ( * ( - 1 ) lam18n0 ) ( * 1 lam18n2 ) ( * Nl2main_i1 lam18n3 ) ( - ( - RFN1_main_i ) ) ) 0 ) ( = ( + ( * 1 lam18n0 ) ( * 1 lam18n1 ) ( * Nl2main_up1 lam18n3 ) ( - ( - RFN1_main_up ) ) ) 0 ) ) ( and ( >= lam19n0 0 ) ( >= lam19n1 0 ) ( >= lam19n3 0 ) ( > ( + ( * ( - 1 ) lam19n1 ) ( * ( - 10 ) lam19n2 ) ( * Nl2CT1 lam19n3 ) ( - 1 ( + ( - ( + ( + RFN1_CT ( * RFN1_main_i ( - 1 ) ) ) ( * RFN1_main_up 0 ) ) RFN1_CT ) 1 ) ) ) 0 ) ( = ( + ( * ( - 1 ) lam19n0 ) ( * 1 lam19n2 ) ( * Nl2main_i1 lam19n3 ) ( - ( - ( + 0 ( * RFN1_main_i 1 ) ) RFN1_main_i ) ) ) 0 ) ( = ( + ( * 1 lam19n0 ) ( * 1 lam19n1 ) ( * Nl2main_up1 lam19n3 ) ( - ( - RFN1_main_up ) ) ) 0 ) ) ) ( and ( and ( >= lam22n0 0 ) ( >= lam22n1 0 ) ( >= lam22n2 0 ) ( >= lam22n4 0 ) ( > ( + ( * ( - 9 ) lam22n1 ) ( * 2 lam22n2 ) ( * ( - 1 ) lam22n3 ) ( * Nl2CT1 lam22n4 ) ( - 1 ( - RFN1_CT ) ) ) 0 ) ( = ( + ( * ( - 1 ) lam22n0 ) ( * 1 lam22n1 ) ( * ( - 1 ) lam22n2 ) ( * Nl2main_i1 lam22n4 ) ( - ( - RFN1_main_i ) ) ) 0 ) ( = ( + ( * 1 lam22n0 ) ( * 1 lam22n3 ) ( * Nl2main_up1 lam22n4 ) ( - ( - RFN1_main_up ) ) ) 0 ) ) ( and ( >= lam23n0 0 ) ( >= lam23n1 0 ) ( >= lam23n2 0 ) ( >= lam23n4 0 ) ( > ( + ( * ( - 9 ) lam23n1 ) ( * 2 lam23n2 ) ( * ( - 1 ) lam23n3 ) ( * Nl2CT1 lam23n4 ) ( - 1 ( + ( - ( + RFN1_CT ( * RFN1_main_i 1 ) ) RFN1_CT ) 1 ) ) ) 0 ) ( = ( + ( * ( - 1 ) lam23n0 ) ( * 1 lam23n1 ) ( * ( - 1 ) lam23n2 ) ( * Nl2main_i1 lam23n4 ) ( - ( - ( + 0 ( * RFN1_main_i 1 ) ) RFN1_main_i ) ) ) 0 ) ( = ( + ( * 1 lam23n0 ) ( * 1 lam23n3 ) ( * Nl2main_up1 lam23n4 ) ( - ( - ( + 0 RFN1_main_up ) RFN1_main_up ) ) ) 0 ) ) ) ( and ( and ( >= lam26n0 0 ) ( >= lam26n1 0 ) ( >= lam26n2 0 ) ( >= lam26n3 0 ) ( >= lam26n4 0 ) ( > ( + ( * ( - 9 ) lam26n2 ) ( * 2 lam26n3 ) ( * Nl2CT1 lam26n4 ) ( - 1 ( - RFN1_CT ) ) ) 0 ) ( = ( + ( * ( - 1 ) lam26n0 ) ( * 1 lam26n2 ) ( * ( - 1 ) lam26n3 ) ( * Nl2main_i1 lam26n4 ) ( - ( - RFN1_main_i ) ) ) 0 ) ( = ( + ( * 1 lam26n0 ) ( * 1 lam26n1 ) ( * Nl2main_up1 lam26n4 ) ( - ( - RFN1_main_up ) ) ) 0 ) ) ( and ( >= lam27n0 0 ) ( >= lam27n1 0 ) ( >= lam27n2 0 ) ( >= lam27n3 0 ) ( >= lam27n4 0 ) ( > ( + ( * ( - 9 ) lam27n2 ) ( * 2 lam27n3 ) ( * Nl2CT1 lam27n4 ) ( - 1 ( + ( - ( + RFN1_CT ( * RFN1_main_i ( - 1 ) ) ) RFN1_CT ) 1 ) ) ) 0 ) ( = ( + ( * ( - 1 ) lam27n0 ) ( * 1 lam27n2 ) ( * ( - 1 ) lam27n3 ) ( * Nl2main_i1 lam27n4 ) ( - ( - ( + 0 ( * RFN1_main_i 1 ) ) RFN1_main_i ) ) ) 0 ) ( = ( + ( * 1 lam27n0 ) ( * 1 lam27n1 ) ( * Nl2main_up1 lam27n4 ) ( - ( - ( + 0 RFN1_main_up ) RFN1_main_up ) ) ) 0 ) ) ) ( and ( and ( >= lam30n0 0 ) ( >= lam30n1 0 ) ( >= lam30n3 0 ) ( > ( + ( * 11 lam30n1 ) ( * ( - 1 ) lam30n2 ) ( * Nl2CT1 lam30n3 ) ( - 1 ( - RFN1_CT ) ) ) 0 ) ( = ( + ( * ( - 1 ) lam30n0 ) ( * ( - 1 ) lam30n1 ) ( * Nl2main_i1 lam30n3 ) ( - ( - RFN1_main_i ) ) ) 0 ) ( = ( + ( * 1 lam30n0 ) ( * 1 lam30n2 ) ( * Nl2main_up1 lam30n3 ) ( - ( - RFN1_main_up ) ) ) 0 ) ) ( and ( >= lam31n0 0 ) ( >= lam31n1 0 ) ( >= lam31n3 0 ) ( > ( + ( * 11 lam31n1 ) ( * ( - 1 ) lam31n2 ) ( * Nl2CT1 lam31n3 ) ( - 1 ( + ( - ( + RFN1_CT ( * RFN1_main_i 1 ) ) RFN1_CT ) 1 ) ) ) 0 ) ( = ( + ( * ( - 1 ) lam31n0 ) ( * ( - 1 ) lam31n1 ) ( * Nl2main_i1 lam31n3 ) ( - ( - ( + 0 ( * RFN1_main_i 1 ) ) RFN1_main_i ) ) ) 0 ) ( = ( + ( * 1 lam31n0 ) ( * 1 lam31n2 ) ( * Nl2main_up1 lam31n3 ) ( - ( - ( + 0 RFN1_main_up ) RFN1_main_up ) ) ) 0 ) ) ) ( and ( and ( >= lam34n0 0 ) ( >= lam34n1 0 ) ( >= lam34n2 0 ) ( >= lam34n3 0 ) ( > ( + ( * 11 lam34n2 ) ( * Nl2CT1 lam34n3 ) ( - 1 ( - RFN1_CT ) ) ) 0 ) ( = ( + ( * ( - 1 ) lam34n0 ) ( * ( - 1 ) lam34n2 ) ( * Nl2main_i1 lam34n3 ) ( - ( - RFN1_main_i ) ) ) 0 ) ( = ( + ( * 1 lam34n0 ) ( * 1 lam34n1 ) ( * Nl2main_up1 lam34n3 ) ( - ( - RFN1_main_up ) ) ) 0 ) ) ( and ( >= lam35n0 0 ) ( >= lam35n1 0 ) ( >= lam35n2 0 ) ( >= lam35n3 0 ) ( > ( + ( * 11 lam35n2 ) ( * Nl2CT1 lam35n3 ) ( - 1 ( + ( - ( + RFN1_CT ( * RFN1_main_i ( - 1 ) ) ) RFN1_CT ) 1 ) ) ) 0 ) ( = ( + ( * ( - 1 ) lam35n0 ) ( * ( - 1 ) lam35n2 ) ( * Nl2main_i1 lam35n3 ) ( - ( - ( + 0 ( * RFN1_main_i 1 ) ) RFN1_main_i ) ) ) 0 ) ( = ( + ( * 1 lam35n0 ) ( * 1 lam35n1 ) ( * Nl2main_up1 lam35n3 ) ( - ( - ( + 0 RFN1_main_up ) RFN1_main_up ) ) ) 0 ) ) ) ) ) ( or ( and ( >= lam13n0 0 ) ( >= lam13n1 0 ) ( >= lam13n3 0 ) ( > ( + ( * ( - 1 ) lam13n1 ) ( * ( - 1 ) lam13n2 ) ( * Nl2CT1 lam13n3 ) ( - 1 ) ) 0 ) ( = ( + ( * ( - 1 ) lam13n0 ) ( * 1 lam13n2 ) ( * Nl2main_i1 lam13n3 ) ) 0 ) ( = ( + ( * 1 lam13n0 ) ( * 1 lam13n1 ) ( * Nl2main_up1 lam13n3 ) ) 0 ) ) ( and ( >= lam17n0 0 ) ( >= lam17n1 0 ) ( >= lam17n3 0 ) ( > ( + ( * ( - 1 ) lam17n1 ) ( * ( - 10 ) lam17n2 ) ( * Nl2CT1 lam17n3 ) ( - 1 ) ) 0 ) ( = ( + ( * ( - 1 ) lam17n0 ) ( * 1 lam17n2 ) ( * Nl2main_i1 lam17n3 ) ) 0 ) ( = ( + ( * 1 lam17n0 ) ( * 1 lam17n1 ) ( * Nl2main_up1 lam17n3 ) ) 0 ) ) ( and ( >= lam21n0 0 ) ( >= lam21n1 0 ) ( >= lam21n2 0 ) ( >= lam21n4 0 ) ( > ( + ( * ( - 9 ) lam21n1 ) ( * 2 lam21n2 ) ( * ( - 1 ) lam21n3 ) ( * Nl2CT1 lam21n4 ) ( - 1 ) ) 0 ) ( = ( + ( * ( - 1 ) lam21n0 ) ( * 1 lam21n1 ) ( * ( - 1 ) lam21n2 ) ( * Nl2main_i1 lam21n4 ) ) 0 ) ( = ( + ( * 1 lam21n0 ) ( * 1 lam21n3 ) ( * Nl2main_up1 lam21n4 ) ) 0 ) ) ( and ( >= lam25n0 0 ) ( >= lam25n1 0 ) ( >= lam25n2 0 ) ( >= lam25n3 0 ) ( >= lam25n4 0 ) ( > ( + ( * ( - 9 ) lam25n2 ) ( * 2 lam25n3 ) ( * Nl2CT1 lam25n4 ) ( - 1 ) ) 0 ) ( = ( + ( * ( - 1 ) lam25n0 ) ( * 1 lam25n2 ) ( * ( - 1 ) lam25n3 ) ( * Nl2main_i1 lam25n4 ) ) 0 ) ( = ( + ( * 1 lam25n0 ) ( * 1 lam25n1 ) ( * Nl2main_up1 lam25n4 ) ) 0 ) ) ( and ( >= lam29n0 0 ) ( >= lam29n1 0 ) ( >= lam29n3 0 ) ( > ( + ( * 11 lam29n1 ) ( * ( - 1 ) lam29n2 ) ( * Nl2CT1 lam29n3 ) ( - 1 ) ) 0 ) ( = ( + ( * ( - 1 ) lam29n0 ) ( * ( - 1 ) lam29n1 ) ( * Nl2main_i1 lam29n3 ) ) 0 ) ( = ( + ( * 1 lam29n0 ) ( * 1 lam29n2 ) ( * Nl2main_up1 lam29n3 ) ) 0 ) ) ( and ( >= lam33n0 0 ) ( >= lam33n1 0 ) ( >= lam33n2 0 ) ( >= lam33n3 0 ) ( > ( + ( * 11 lam33n2 ) ( * Nl2CT1 lam33n3 ) ( - 1 ) ) 0 ) ( = ( + ( * ( - 1 ) lam33n0 ) ( * ( - 1 ) lam33n2 ) ( * Nl2main_i1 lam33n3 ) ) 0 ) ( = ( + ( * 1 lam33n0 ) ( * 1 lam33n1 ) ( * Nl2main_up1 lam33n3 ) ) 0 ) ) ) ))
(check-sat)
(exit)
